dias = 16;
clientes = 10;
centrales = 3;

costos=[100,200,300];
capacidades=[2000,10000,13000];
porcentajeRegimen=[80,80,80];
diasRegimen=[2,1,3];

demanda=[|50,200,200,400,0,900,0,100,500,50,25,50,100,25,100,50|
          25,100,100,100,300,0,0,150,300,1000,30,25,26,26,21,12|
          50,10,100,10,0,300,0,150,300,10,100,200,150,25,30,15|
          25,300,100,100,1000,0,0,200,300,10,120,320,140,250,25,30|
          50,100,10,300,0,300,1000,150,300,10,24,30,40,55,30,120|
          25,300,100,100,0,150,0,150,300,10,200,250,500,250,120,300|
          50,150,1000,100,150,0,0,150,300,150,300,250,120,360,500,120|
          50,100,150,250,0,150,0,200,300,10,25,120,125,25,50,100|
          50,200,200,400,0,900,0,100,500,10,400,500,360,215,201,600|
          25,100,100,100,300,0,0,150,300,1000,250,500,1000,40,60,10|]

